0,46,68,182,0
0,4,15,71,193,151,125,138,111,0
0,158,51,143,113,76,134,126,148,1,0
0,155,120,26,123,21,69,101,59,83,0
0,196,145,161,48,176,165,31,169,103,0
0,146,115,16,187,185,124,181,88,53,42,0
0,168,139,92,122,8,162,171,170,78,52,0
0,140,18,49,86,131,195,27,180,167,91,61,0
0,63,67,7,135,38,192,17,40,45,24,108,0
0,147,93,199,166,175,129,33,9,81,149,119,0
0,106,85,94,12,178,23,37,164,70,190,72,0
0,157,41,80,5,133,109,186,144,179,107,75,0
0,73,20,163,104,100,136,142,159,13,174,74,0
0,44,137,150,28,64,25,116,14,154,97,105,197,0
0,55,36,3,50,66,11,130,117,160,79,156,172,0
0,87,57,34,62,84,118,152,183,200,121,112,60,0
0,132,2,128,194,98,6,189,177,102,10,173,90,32,0
0,56,188,184,153,54,89,141,191,29,96,43,65,198,0
0,99,30,35,114,19,95,39,22,47,82,58,127,77,110,0
